NAME          DCAP_2_4_3_500_SS253
ROWS
 N  OBJ
 L  CON1
 L  CON2
 L  CON3
 L  CON4
 L  CON5
 L  CON6
 L  CON7
 L  CON8
 L  CON9
 L  CON10
 L  CON11
 L  CON12
 E  CON13
 E  CON14
 E  CON15
 E  CON16
 E  CON17
 E  CON18
 E  CON19
 E  CON20
 E  CON21
 E  CON22
 E  CON23
 E  CON24
COLUMNS
    x[1,1]    OBJ       6.180167      CON1      1.000000    
    x[1,1]    CON7      -1.000000     CON8      -1.000000   
    x[1,1]    CON9      -1.000000   
    x[1,2]    OBJ       6.563535      CON2      1.000000    
    x[1,2]    CON8      -1.000000     CON9      -1.000000   
    x[1,3]    OBJ       7.443064      CON3      1.000000    
    x[1,3]    CON9      -1.000000   
    x[2,1]    OBJ       6.732585      CON4      1.000000    
    x[2,1]    CON10     -1.000000     CON11     -1.000000   
    x[2,1]    CON12     -1.000000   
    x[2,2]    OBJ       5.039546      CON5      1.000000    
    x[2,2]    CON11     -1.000000     CON12     -1.000000   
    x[2,3]    OBJ       6.054841      CON6      1.000000    
    x[2,3]    CON12     -1.000000   
    MARKER    'MARKER'                'INTORG'
    u[1,1]    OBJ       48.076654     CON1      -1.000000   
    u[1,2]    OBJ       20.066487     CON2      -1.000000   
    u[1,3]    OBJ       32.230043     CON3      -1.000000   
    u[2,1]    OBJ       49.996186     CON4      -1.000000   
    u[2,2]    OBJ       49.466655     CON5      -1.000000   
    u[2,3]    OBJ       27.484319     CON6      -1.000000   
    y[1,1,1]  OBJ       5.614425      CON7      0.690868    
    y[1,1,1]  CON13     1.000000    
    y[1,1,2]  OBJ       5.711157      CON8      1.211849    
    y[1,1,2]  CON14     1.000000    
    y[1,1,3]  OBJ       7.220349      CON9      0.571444    
    y[1,1,3]  CON15     1.000000    
    y[1,2,1]  OBJ       9.762142      CON7      1.125999    
    y[1,2,1]  CON16     1.000000    
    y[1,2,2]  OBJ       6.036110      CON8      0.574622    
    y[1,2,2]  CON17     1.000000    
    y[1,2,3]  OBJ       5.555533      CON9      0.722705    
    y[1,2,3]  CON18     1.000000    
    y[1,3,1]  OBJ       8.155620      CON7      1.366911    
    y[1,3,1]  CON19     1.000000    
    y[1,3,2]  OBJ       7.708833      CON8      1.214759    
    y[1,3,2]  CON20     1.000000    
    y[1,3,3]  OBJ       7.790847      CON9      1.092800    
    y[1,3,3]  CON21     1.000000    
    y[1,4,1]  OBJ       6.174475      CON7      0.736684    
    y[1,4,1]  CON22     1.000000    
    y[1,4,2]  OBJ       8.445747      CON8      0.737929    
    y[1,4,2]  CON23     1.000000    
    y[1,4,3]  OBJ       6.007781      CON9      0.775412    
    y[1,4,3]  CON24     1.000000    
    y[2,1,1]  OBJ       6.721584      CON10     0.690868    
    y[2,1,1]  CON13     1.000000    
    y[2,1,2]  OBJ       8.513668      CON11     1.211849    
    y[2,1,2]  CON14     1.000000    
    y[2,1,3]  OBJ       8.167268      CON12     0.571444    
    y[2,1,3]  CON15     1.000000    
    y[2,2,1]  OBJ       7.819854      CON10     1.125999    
    y[2,2,1]  CON16     1.000000    
    y[2,2,2]  OBJ       7.206128      CON11     0.574622    
    y[2,2,2]  CON17     1.000000    
    y[2,2,3]  OBJ       8.490517      CON12     0.722705    
    y[2,2,3]  CON18     1.000000    
    y[2,3,1]  OBJ       6.401369      CON10     1.366911    
    y[2,3,1]  CON19     1.000000    
    y[2,3,2]  OBJ       7.845233      CON11     1.214759    
    y[2,3,2]  CON20     1.000000    
    y[2,3,3]  OBJ       8.079902      CON12     1.092800    
    y[2,3,3]  CON21     1.000000    
    y[2,4,1]  OBJ       5.854095      CON10     0.736684    
    y[2,4,1]  CON22     1.000000    
    y[2,4,2]  OBJ       8.055043      CON11     0.737929    
    y[2,4,2]  CON23     1.000000    
    y[2,4,3]  OBJ       7.282815      CON12     0.775412    
    y[2,4,3]  CON24     1.000000    
    z[1,1]    OBJ       593.941566    CON13     1.000000    
    z[1,2]    OBJ       915.566985    CON14     1.000000    
    z[1,3]    OBJ       566.771299    CON15     1.000000    
    z[2,1]    OBJ       675.399620    CON16     1.000000    
    z[2,2]    OBJ       796.679612    CON17     1.000000    
    z[2,3]    OBJ       872.612108    CON18     1.000000    
    z[3,1]    OBJ       780.067201    CON19     1.000000    
    z[3,2]    OBJ       720.352045    CON20     1.000000    
    z[3,3]    OBJ       643.767038    CON21     1.000000    
    z[4,1]    OBJ       594.311486    CON22     1.000000    
    z[4,2]    OBJ       549.214201    CON23     1.000000    
    z[4,3]    OBJ       739.156993    CON24     1.000000    
    MARKER    'MARKER'                 'INTEND'
RHS
    RHS       CON1      -0.000000     CON2      -0.000000   
    RHS       CON3      -0.000000     CON4      -0.000000   
    RHS       CON5      -0.000000     CON6      -0.000000   
    RHS       CON7      -0.000000     CON8      -0.000000   
    RHS       CON9      -0.000000     CON10     -0.000000   
    RHS       CON11     -0.000000     CON12     -0.000000   
    RHS       CON13     1.000000      CON14     1.000000    
    RHS       CON15     1.000000      CON16     1.000000    
    RHS       CON17     1.000000      CON18     1.000000    
    RHS       CON19     1.000000      CON20     1.000000    
    RHS       CON21     1.000000      CON22     1.000000    
    RHS       CON23     1.000000      CON24     1.000000    
BOUNDS
 BV BOUND     u[1,1]  
 BV BOUND     u[1,2]  
 BV BOUND     u[1,3]  
 BV BOUND     u[2,1]  
 BV BOUND     u[2,2]  
 BV BOUND     u[2,3]  
 BV BOUND     y[1,1,1]
 BV BOUND     y[1,1,2]
 BV BOUND     y[1,1,3]
 BV BOUND     y[1,2,1]
 BV BOUND     y[1,2,2]
 BV BOUND     y[1,2,3]
 BV BOUND     y[1,3,1]
 BV BOUND     y[1,3,2]
 BV BOUND     y[1,3,3]
 BV BOUND     y[1,4,1]
 BV BOUND     y[1,4,2]
 BV BOUND     y[1,4,3]
 BV BOUND     y[2,1,1]
 BV BOUND     y[2,1,2]
 BV BOUND     y[2,1,3]
 BV BOUND     y[2,2,1]
 BV BOUND     y[2,2,2]
 BV BOUND     y[2,2,3]
 BV BOUND     y[2,3,1]
 BV BOUND     y[2,3,2]
 BV BOUND     y[2,3,3]
 BV BOUND     y[2,4,1]
 BV BOUND     y[2,4,2]
 BV BOUND     y[2,4,3]
 BV BOUND     z[1,1]  
 BV BOUND     z[1,2]  
 BV BOUND     z[1,3]  
 BV BOUND     z[2,1]  
 BV BOUND     z[2,2]  
 BV BOUND     z[2,3]  
 BV BOUND     z[3,1]  
 BV BOUND     z[3,2]  
 BV BOUND     z[3,3]  
 BV BOUND     z[4,1]  
 BV BOUND     z[4,2]  
 BV BOUND     z[4,3]  
ENDATA
